27 6
9 10 10 11 9 9
1 0 0 0 0 0 0 3 2 3 4
1 0 0 9 0 0 0 3 5 6 8
4 9 0 0 10 7 4 4 27 6 7 8
5 8 0 0 7 0 0 3 5 7 8
10 0 0 6 7 1 0 4 9 10 11 12
4 0 5 0 8 0 9 4 9 10 11 12
5 0 0 10 6 1 0 4 9 10 11 12
7 0 10 0 4 8 1 4 9 10 11 12
8 4 0 0 2 0 6 2 13 15
1 0 0 0 8 7 0 3 13 14 15
6 4 10 0 0 8 0 4 13 14 15 16
5 4 0 7 0 2 0 4 13 14 15 16
8 0 0 0 9 0 4 4 17 18 19 20
4 0 8 2 0 0 2 4 17 18 19 20
10 6 0 0 0 7 8 4 17 18 19 20
9 0 0 0 10 4 4 4 17 18 19 20
6 0 10 0 1 0 2 4 21 22 23 24
4 7 0 0 0 0 5 4 21 22 23 24
6 9 0 2 0 9 8 3 21 22 24
7 1 0 0 9 5 4 4 21 22 23 24
5 8 6 2 0 2 0 2 25 26
8 3 5 2 0 4 0 2 25 26
8 0 8 0 5 3 0 2 25 26
3 0 0 0 0 2 0 2 25 26
8 2 0 0 5 0 3 1 27
7 0 0 10 0 0 7 1 27
0 0 0 0 0 0 0 0
